NAME: line_36_41
TYPE: TSP
COMMENT: srandom_36_41
DIMENSION: 36
EDGE_WEIGHT_TYPE: EUC_2D
NODE_COORD_SECTION
1 3305 432
2 1282 4898
3 1681 1909
4 1638 2191
5 2686 1471
6 2653 2696
7 558 103
8 4643 1490
9 750 4163
10 2328 4878
11 1875 4194
12 4196 4535
13 846 1920
14 3635 2707
15 3951 2113
16 1396 4894
17 4366 1456
18 485 1360
19 1046 892
20 2207 1281
21 205 1203
22 4538 50
23 3458 1146
24 3789 238
25 2089 4551
26 3157 1821
27 1620 783
28 2321 2094
29 2198 3189
30 4418 59
31 3754 2969
32 3444 3832
33 1896 297
34 3892 114
35 3054 1782
36 799 1853
